Reading model...
...model read.
creating competitive generators file...
...competitive generators recorded.
Loading data...
.. real-time data read.
Compiling instance...
...instance created.
Creating Offer Mitigation (model will solve as dispatch if TRUE)...
NOTE: storage offers will not be mitigated
...storage offer mitigation file created
Converting model to MPEC...
...converted
NOTE: initial MIP solve with only storage competitive to get feasible solution
Solving...

Welcome to IBM(R) ILOG(R) CPLEX(R) Interactive Optimizer 12.9.0.0
  with Simplex, Mixed Integer & Barrier Optimizers
5725-A06 5725-A29 5724-Y48 5724-Y49 5724-Y54 5724-Y55 5655-Y21
Copyright IBM Corp. 1988, 2019.  All Rights Reserved.

Type 'help' for a list of available commands.
Type 'help' followed by a command name for more
information on commands.

CPLEX> Logfile 'cplex.log' closed.
Logfile 'C:\Users\llavin\Desktop\test826\logs\tmpvi79xj4q.cplex.log' open.
CPLEX> New value for parallel optimization mode: -1
CPLEX> New value for mixed integer optimality gap tolerance: 0.01
CPLEX> New value for feasibility tolerance: 1e-09
CPLEX> New value for deterministic time limit in ticks: 100000
CPLEX> Problem 'C:\Users\llavin\Desktop\test826\logs\tmphap519vl.pyomo.lp' read.
Read time = 0.53 sec. (28.52 ticks)
CPLEX> Problem name         : C:\Users\llavin\Desktop\test826\logs\tmphap519vl.pyomo.lp
Objective sense      : Maximize
Variables            :  107781  [Nneg: 1,  Box: 44056,  Free: 8928,
                                 Binary: 54796]
Objective nonzeros   :   17521
Linear constraints   :  246901  [Less: 82866,  Greater: 118424,  Equal: 45611]
  Nonzeros           :  618221
  RHS nonzeros       :  135026

Variables            : Min LB: -5000.000        Max UB: 1000000.       
Objective nonzeros   : Min   : 0.008333333      Max   : 208.3333       
Linear constraints   :
  Nonzeros           : Min   : 0.008333333      Max   : 1000000.       
  RHS nonzeros       : Min   : 0.008333333      Max   : 1000000.       
CPLEX> CPXPARAM_Parallel                                -1
CPXPARAM_Simplex_Tolerances_Feasibility          1.0000000000000001e-09
CPXPARAM_DetTimeLimit                            100000
CPXPARAM_MIP_Tolerances_MIPGap                   0.01
Tried aggregator 3 times.
MIP Presolve eliminated 180585 rows and 40733 columns.
MIP Presolve added 6192 rows and 0 columns.
MIP Presolve modified 50965 coefficients.
Aggregator did 25838 substitutions.
Reduced MIP has 46670 rows, 39690 columns, and 158917 nonzeros.
Reduced MIP has 15624 binaries, 0 generals, 0 SOSs, and 0 indicators.
Presolve time = 0.64 sec. (380.65 ticks)
Probing fixed 746 vars, tightened 10418 bounds.
Probing time = 0.39 sec. (15.28 ticks)
Tried aggregator 2 times.
MIP Presolve eliminated 1682 rows and 1492 columns.
MIP Presolve modified 5524 coefficients.
Aggregator did 96 substitutions.
Reduced MIP has 44892 rows, 38102 columns, and 153773 nonzeros.
Reduced MIP has 14878 binaries, 0 generals, 0 SOSs, and 0 indicators.
Presolve time = 0.25 sec. (227.19 ticks)
Probing fixed 0 vars, tightened 539 bounds.
Probing time = 0.50 sec. (16.09 ticks)
Clique table members: 84780.
MIP emphasis: balance optimality and feasibility.
MIP search method: dynamic search.
Parallel mode: opportunistic, using up to 32 threads.
Root relaxation solution time = 1.23 sec. (2080.77 ticks)

        Nodes                                         Cuts/
   Node  Left     Objective  IInf  Best Integer    Best Bound    ItCnt     Gap

      0     0     -545.0923   317                   -545.0923    10951         
*     0     0      integral     0     -545.0923     -545.0923    10951    0.00%
Elapsed time = 4.83 sec. (4046.98 ticks, tree = 0.01 MB, solutions = 1)

Root node processing (before b&c):
  Real time             =    4.88 sec. (4050.88 ticks)
Parallel b&c, 32 threads:
  Real time             =    0.00 sec. (0.00 ticks)
  Sync time (average)   =    0.00 sec.
  Wait time (average)   =    0.00 sec.
                          ------------
Total (root+branch&cut) =    4.88 sec. (4050.88 ticks)

Solution pool: 1 solution saved.

MIP - Integer optimal solution:  Objective = -5.4509232580e+02
Solution time =    4.89 sec.  Iterations = 10951  Nodes = 0
Deterministic time = 4051.19 ticks  (828.30 ticks/sec)

CPLEX> Incumbent solution written to file 'C:\Users\llavin\Desktop\test826\logs\tmpzdaorcw3.cplex.sol'.
CPLEX> NOTE: no warmstart specified for MIP iteration, default behavior is true
NOTE: resolving with all competitive generators using storage-only solution to warmstart
Solving...

Welcome to IBM(R) ILOG(R) CPLEX(R) Interactive Optimizer 12.9.0.0
  with Simplex, Mixed Integer & Barrier Optimizers
5725-A06 5725-A29 5724-Y48 5724-Y49 5724-Y54 5724-Y55 5655-Y21
Copyright IBM Corp. 1988, 2019.  All Rights Reserved.

Type 'help' for a list of available commands.
Type 'help' followed by a command name for more
information on commands.

CPLEX> Logfile 'cplex.log' closed.
Logfile 'C:\Users\llavin\Desktop\test826\logs\tmpqpzcpo5b.cplex.log' open.
CPLEX> New value for parallel optimization mode: -1
CPLEX> New value for mixed integer optimality gap tolerance: 0.01
CPLEX> New value for feasibility tolerance: 1e-09
CPLEX> New value for deterministic time limit in ticks: 100000
CPLEX> Problem 'C:\Users\llavin\Desktop\test826\logs\tmpbdorrmf1.pyomo.lp' read.
Read time = 0.53 sec. (28.57 ticks)
CPLEX> MIP start file 'C:\Users\llavin\Desktop\test826\logs\tmpsdxrb_lm.cplex.mst' read.
CPLEX> Problem name         : C:\Users\llavin\Desktop\test826\logs\tmpbdorrmf1.pyomo.lp
Objective sense      : Maximize
Variables            :  109221  [Nneg: 1,  Box: 45496,  Free: 8928,
                                 Binary: 54796]
Objective nonzeros   :   18913
Linear constraints   :  246901  [Less: 82866,  Greater: 118424,  Equal: 45611]
  Nonzeros           :  618221
  RHS nonzeros       :  135026

Variables            : Min LB: -5000.000        Max UB: 1000000.       
Objective nonzeros   : Min   : 0.008333333      Max   : 208.3333       
Linear constraints   :
  Nonzeros           : Min   : 0.008333333      Max   : 1000000.       
  RHS nonzeros       : Min   : 0.008333333      Max   : 1000000.       
CPLEX> CPXPARAM_Parallel                                -1
CPXPARAM_Simplex_Tolerances_Feasibility          1.0000000000000001e-09
CPXPARAM_DetTimeLimit                            100000
CPXPARAM_MIP_Tolerances_MIPGap                   0.01
1 of 1 MIP starts provided solutions.
MIP start 'm1' defined initial solution with objective 29095.7842.
Tried aggregator 3 times.
MIP Presolve eliminated 180585 rows and 42173 columns.
MIP Presolve added 6192 rows and 0 columns.
MIP Presolve modified 50965 coefficients.
Aggregator did 25838 substitutions.
Reduced MIP has 46670 rows, 39690 columns, and 158917 nonzeros.
Reduced MIP has 15624 binaries, 0 generals, 0 SOSs, and 0 indicators.
Presolve time = 0.61 sec. (381.35 ticks)
Probing fixed 746 vars, tightened 10418 bounds.
Probing time = 0.38 sec. (15.28 ticks)
Tried aggregator 2 times.
MIP Presolve eliminated 1682 rows and 1492 columns.
MIP Presolve modified 5524 coefficients.
Aggregator did 96 substitutions.
Reduced MIP has 44892 rows, 38102 columns, and 153773 nonzeros.
Reduced MIP has 14878 binaries, 0 generals, 0 SOSs, and 0 indicators.
Presolve time = 0.25 sec. (227.19 ticks)
Probing fixed 0 vars, tightened 534 bounds.
Probing time = 0.50 sec. (15.79 ticks)
Clique table members: 84582.
MIP emphasis: balance optimality and feasibility.
MIP search method: dynamic search.
Parallel mode: opportunistic, using up to 32 threads.
Root relaxation solution time = 1.34 sec. (2277.32 ticks)

        Nodes                                         Cuts/
   Node  Left     Objective  IInf  Best Integer    Best Bound    ItCnt     Gap

*     0+    0                        29095.7842   1.43970e+07              --- 
      0     0    29280.4900   533    29095.7842    29280.4900    11984    0.63%

Root node processing (before b&c):
  Real time             =    4.00 sec. (3493.26 ticks)
Parallel b&c, 32 threads:
  Real time             =    0.00 sec. (0.00 ticks)
  Sync time (average)   =    0.00 sec.
  Wait time (average)   =    0.00 sec.
                          ------------
Total (root+branch&cut) =    4.00 sec. (3493.26 ticks)

Solution pool: 1 solution saved.

MIP - Integer optimal, tolerance (0.01/1e-06):  Objective =  2.9095784200e+04
Current MIP best bound =  2.9280489969e+04 (gap = 184.706, 0.63%)
Solution time =    4.00 sec.  Iterations = 11984  Nodes = 0 (1)
Deterministic time = 3493.57 ticks  (873.39 ticks/sec)

CPLEX> Incumbent solution written to file 'C:\Users\llavin\Desktop\test826\logs\tmp8cjdo17y.cplex.sol'.
CPLEX> Exporting results... 
